unknown
(model
; cardinality of BoundSet is 3
(declare-sort BoundSet 0)
; rep: @uc_BoundSet_0
; rep: @uc_BoundSet_1
; rep: @uc_BoundSet_2
; cardinality of UnboundSet is 1
(declare-sort UnboundSet 0)
(declare-fun groundTerm_4 () UnboundSet)
(define-fun IsFlapping ((BOUND_VARIABLE_479 BoundSet)) Bool true)
(define-fun IsOnWater ((BOUND_VARIABLE_479 BoundSet)) Bool true)
(define-fun IsFlying ((BOUND_VARIABLE_479 BoundSet)) Bool true)
(define-fun IsOver ((BOUND_VARIABLE_479 BoundSet)) Bool false)
)
sat
(model
; cardinality of BoundSet is 1
(declare-sort BoundSet 0)
; rep: @uc_BoundSet_0
; cardinality of UnboundSet is 1
(declare-sort UnboundSet 0)
(declare-fun groundTerm_9 () UnboundSet)
(define-fun IsFlapping ((BOUND_VARIABLE_506 BoundSet)) Bool true)
(define-fun IsOnWater ((BOUND_VARIABLE_506 BoundSet)) Bool true)
(define-fun IsFlying ((BOUND_VARIABLE_506 BoundSet)) Bool true)
(define-fun IsOver ((BOUND_VARIABLE_506 BoundSet)) Bool false)
)
